c File: flat50_3_0.col
c
c SOURCE: Joseph Culberson (joe@cs.ualberta.ca)
c DESCRIPTION: Quasi-random coloring problem
c              generated with flatness = 0
c                             probability = 0.139
c                             known coloring = 3
c                             random seed = 1906
c              Creation Date:  Tue Jun  9 12:20:52 1998
c Maximum degree = 8 Minimum degree = 1
c p edge 50 115
c cnf created by edge2cnf
p cnf 150 545
-1 -2 0
-1 -3 0
-2 -3 0
1 2 3 0
-4 -5 0
-4 -6 0
-5 -6 0
4 5 6 0
-7 -8 0
-7 -9 0
-8 -9 0
7 8 9 0
-10 -11 0
-10 -12 0
-11 -12 0
10 11 12 0
-13 -14 0
-13 -15 0
-14 -15 0
13 14 15 0
-16 -17 0
-16 -18 0
-17 -18 0
16 17 18 0
-19 -20 0
-19 -21 0
-20 -21 0
19 20 21 0
-22 -23 0
-22 -24 0
-23 -24 0
22 23 24 0
-25 -26 0
-25 -27 0
-26 -27 0
25 26 27 0
-28 -29 0
-28 -30 0
-29 -30 0
28 29 30 0
-31 -32 0
-31 -33 0
-32 -33 0
31 32 33 0
-34 -35 0
-34 -36 0
-35 -36 0
34 35 36 0
-37 -38 0
-37 -39 0
-38 -39 0
37 38 39 0
-40 -41 0
-40 -42 0
-41 -42 0
40 41 42 0
-43 -44 0
-43 -45 0
-44 -45 0
43 44 45 0
-46 -47 0
-46 -48 0
-47 -48 0
46 47 48 0
-49 -50 0
-49 -51 0
-50 -51 0
49 50 51 0
-52 -53 0
-52 -54 0
-53 -54 0
52 53 54 0
-55 -56 0
-55 -57 0
-56 -57 0
55 56 57 0
-58 -59 0
-58 -60 0
-59 -60 0
58 59 60 0
-61 -62 0
-61 -63 0
-62 -63 0
61 62 63 0
-64 -65 0
-64 -66 0
-65 -66 0
64 65 66 0
-67 -68 0
-67 -69 0
-68 -69 0
67 68 69 0
-70 -71 0
-70 -72 0
-71 -72 0
70 71 72 0
-73 -74 0
-73 -75 0
-74 -75 0
73 74 75 0
-76 -77 0
-76 -78 0
-77 -78 0
76 77 78 0
-79 -80 0
-79 -81 0
-80 -81 0
79 80 81 0
-82 -83 0
-82 -84 0
-83 -84 0
82 83 84 0
-85 -86 0
-85 -87 0
-86 -87 0
85 86 87 0
-88 -89 0
-88 -90 0
-89 -90 0
88 89 90 0
-91 -92 0
-91 -93 0
-92 -93 0
91 92 93 0
-94 -95 0
-94 -96 0
-95 -96 0
94 95 96 0
-97 -98 0
-97 -99 0
-98 -99 0
97 98 99 0
-100 -101 0
-100 -102 0
-101 -102 0
100 101 102 0
-103 -104 0
-103 -105 0
-104 -105 0
103 104 105 0
-106 -107 0
-106 -108 0
-107 -108 0
106 107 108 0
-109 -110 0
-109 -111 0
-110 -111 0
109 110 111 0
-112 -113 0
-112 -114 0
-113 -114 0
112 113 114 0
-115 -116 0
-115 -117 0
-116 -117 0
115 116 117 0
-118 -119 0
-118 -120 0
-119 -120 0
118 119 120 0
-121 -122 0
-121 -123 0
-122 -123 0
121 122 123 0
-124 -125 0
-124 -126 0
-125 -126 0
124 125 126 0
-127 -128 0
-127 -129 0
-128 -129 0
127 128 129 0
-130 -131 0
-130 -132 0
-131 -132 0
130 131 132 0
-133 -134 0
-133 -135 0
-134 -135 0
133 134 135 0
-136 -137 0
-136 -138 0
-137 -138 0
136 137 138 0
-139 -140 0
-139 -141 0
-140 -141 0
139 140 141 0
-142 -143 0
-142 -144 0
-143 -144 0
142 143 144 0
-145 -146 0
-145 -147 0
-146 -147 0
145 146 147 0
-148 -149 0
-148 -150 0
-149 -150 0
148 149 150 0
-58 -1 0
-59 -2 0
-60 -3 0
-73 -1 0
-74 -2 0
-75 -3 0
-76 -1 0
-77 -2 0
-78 -3 0
-100 -1 0
-101 -2 0
-102 -3 0
-103 -1 0
-104 -2 0
-105 -3 0
-106 -1 0
-107 -2 0
-108 -3 0
-118 -1 0
-119 -2 0
-120 -3 0
-136 -1 0
-137 -2 0
-138 -3 0
-73 -4 0
-74 -5 0
-75 -6 0
-79 -4 0
-80 -5 0
-81 -6 0
-100 -4 0
-101 -5 0
-102 -6 0
-127 -4 0
-128 -5 0
-129 -6 0
-139 -4 0
-140 -5 0
-141 -6 0
-145 -4 0
-146 -5 0
-147 -6 0
-64 -7 0
-65 -8 0
-66 -9 0
-109 -7 0
-110 -8 0
-111 -9 0
-139 -7 0
-140 -8 0
-141 -9 0
-145 -7 0
-146 -8 0
-147 -9 0
-55 -10 0
-56 -11 0
-57 -12 0
-70 -10 0
-71 -11 0
-72 -12 0
-79 -10 0
-80 -11 0
-81 -12 0
-82 -10 0
-83 -11 0
-84 -12 0
-106 -10 0
-107 -11 0
-108 -12 0
-130 -10 0
-131 -11 0
-132 -12 0
-145 -10 0
-146 -11 0
-147 -12 0
-61 -13 0
-62 -14 0
-63 -15 0
-67 -13 0
-68 -14 0
-69 -15 0
-82 -13 0
-83 -14 0
-84 -15 0
-97 -13 0
-98 -14 0
-99 -15 0
-109 -13 0
-110 -14 0
-111 -15 0
-118 -13 0
-119 -14 0
-120 -15 0
-91 -16 0
-92 -17 0
-93 -18 0
-139 -16 0
-140 -17 0
-141 -18 0
-142 -16 0
-143 -17 0
-144 -18 0
-70 -19 0
-71 -20 0
-72 -21 0
-100 -19 0
-101 -20 0
-102 -21 0
-55 -22 0
-56 -23 0
-57 -24 0
-64 -22 0
-65 -23 0
-66 -24 0
-88 -22 0
-89 -23 0
-90 -24 0
-112 -22 0
-113 -23 0
-114 -24 0
-58 -25 0
-59 -26 0
-60 -27 0
-70 -25 0
-71 -26 0
-72 -27 0
-94 -25 0
-95 -26 0
-96 -27 0
-127 -25 0
-128 -26 0
-129 -27 0
-136 -25 0
-137 -26 0
-138 -27 0
-61 -28 0
-62 -29 0
-63 -30 0
-97 -28 0
-98 -29 0
-99 -30 0
-58 -31 0
-59 -32 0
-60 -33 0
-85 -31 0
-86 -32 0
-87 -33 0
-88 -31 0
-89 -32 0
-90 -33 0
-118 -31 0
-119 -32 0
-120 -33 0
-91 -34 0
-92 -35 0
-93 -36 0
-115 -34 0
-116 -35 0
-117 -36 0
-52 -37 0
-53 -38 0
-54 -39 0
-64 -37 0
-65 -38 0
-66 -39 0
-76 -37 0
-77 -38 0
-78 -39 0
-100 -37 0
-101 -38 0
-102 -39 0
-109 -37 0
-110 -38 0
-111 -39 0
-118 -37 0
-119 -38 0
-120 -39 0
-127 -37 0
-128 -38 0
-129 -39 0
-148 -37 0
-149 -38 0
-150 -39 0
-64 -40 0
-65 -41 0
-66 -42 0
-76 -40 0
-77 -41 0
-78 -42 0
-124 -40 0
-125 -41 0
-126 -42 0
-127 -40 0
-128 -41 0
-129 -42 0
-142 -40 0
-143 -41 0
-144 -42 0
-106 -43 0
-107 -44 0
-108 -45 0
-109 -43 0
-110 -44 0
-111 -45 0
-139 -43 0
-140 -44 0
-141 -45 0
-55 -46 0
-56 -47 0
-57 -48 0
-58 -46 0
-59 -47 0
-60 -48 0
-76 -46 0
-77 -47 0
-78 -48 0
-106 -46 0
-107 -47 0
-108 -48 0
-112 -46 0
-113 -47 0
-114 -48 0
-121 -46 0
-122 -47 0
-123 -48 0
-142 -46 0
-143 -47 0
-144 -48 0
-142 -49 0
-143 -50 0
-144 -51 0
-127 -52 0
-128 -53 0
-129 -54 0
-130 -52 0
-131 -53 0
-132 -54 0
-148 -52 0
-149 -53 0
-150 -54 0
-121 -55 0
-122 -56 0
-123 -57 0
-127 -55 0
-128 -56 0
-129 -57 0
-148 -58 0
-149 -59 0
-150 -60 0
-130 -64 0
-131 -65 0
-132 -66 0
-133 -64 0
-134 -65 0
-135 -66 0
-136 -67 0
-137 -68 0
-138 -69 0
-121 -70 0
-122 -71 0
-123 -72 0
-148 -70 0
-149 -71 0
-150 -72 0
-142 -73 0
-143 -74 0
-144 -75 0
-115 -76 0
-116 -77 0
-117 -78 0
-139 -76 0
-140 -77 0
-141 -78 0
-109 -79 0
-110 -80 0
-111 -81 0
-118 -79 0
-119 -80 0
-120 -81 0
-121 -79 0
-122 -80 0
-123 -81 0
-145 -79 0
-146 -80 0
-147 -81 0
-103 -82 0
-104 -83 0
-105 -84 0
-106 -82 0
-107 -83 0
-108 -84 0
-124 -82 0
-125 -83 0
-126 -84 0
-142 -82 0
-143 -83 0
-144 -84 0
-115 -85 0
-116 -86 0
-117 -87 0
-124 -85 0
-125 -86 0
-126 -87 0
-142 -85 0
-143 -86 0
-144 -87 0
-124 -88 0
-125 -89 0
-126 -90 0
-130 -88 0
-131 -89 0
-132 -90 0
-136 -88 0
-137 -89 0
-138 -90 0
-115 -91 0
-116 -92 0
-117 -93 0
-130 -91 0
-131 -92 0
-132 -93 0
-136 -91 0
-137 -92 0
-138 -93 0
-124 -94 0
-125 -95 0
-126 -96 0
-145 -94 0
-146 -95 0
-147 -96 0
-148 -97 0
-149 -98 0
-150 -99 0
-103 -100 0
-104 -101 0
-105 -102 0
-115 -100 0
-116 -101 0
-117 -102 0
-118 -100 0
-119 -101 0
-120 -102 0
-142 -100 0
-143 -101 0
-144 -102 0
